s td 30 27 71
b 1 2 4 17 21 28 30 32 36 39 44 45 50 54 56 60 66 67 70
b 2 1 11 20 21 22 23 24 33 34 38 41 43 47 52 57 62 64 65
b 3 1 11 20 21 23 24 32 34 41 43 47 52 57 62 64 65
b 4 3 5 6 7 8 12 13 14 15 21 26 29 31 37 40 42 46 48 49 51 55 58 59 62 63 65 69
b 5 5 6 7 8 12 13 14 15 21 24 26 29 31 37 40 42 46 48 49 51 55 58 59 62 63 65 69
b 6 5 6 7 8 13 14 15 21 24 26 29 31 37 40 42 46 48 49 51 52 55 58 59 62 63 65 69
b 7 5 6 7 8 14 15 21 24 26 29 31 32 37 40 42 46 48 49 51 52 55 58 59 62 63 65 69
b 8 6 7 14 15 21 24 26 29 32 37 40 42 46 48 49 51 52 55 58 59 62 63 64 65 69
b 9 6 7 14 15 21 24 26 29 32 37 40 42 46 48 51 52 55 57 58 59 62 63 64 65
b 10 6 7 14 15 21 24 26 29 32 37 42 47 48 51 52 55 57 58 59 62 63 64 65
b 11 6 7 15 21 24 26 32 37 42 43 47 48 51 52 55 57 58 59 62 63 64 65
b 12 7 15 21 24 26 32 37 41 42 43 47 48 52 55 57 58 59 62 63 64 65
b 13 15 21 24 26 32 34 37 41 42 43 47 48 52 55 57 58 59 62 64 65
b 14 15 21 23 24 26 32 34 37 41 43 47 48 52 55 57 59 62 64 65
b 15 15 20 21 23 24 26 32 34 41 43 47 48 52 57 59 62 64 65
b 16 1 15 20 21 23 24 32 34 41 43 47 52 57 59 62 64 65
b 17 5 6 7 8 9 10 15 16 18 19 21 25 27 28 29 31 35 37 46 48 53 58 61 67 68 69 71
b 18 5 6 7 8 10 15 16 18 19 21 25 27 28 29 31 32 35 37 46 48 53 58 61 67 68 69 71
b 19 5 6 7 10 15 16 18 19 21 25 27 28 29 31 32 35 37 45 46 48 53 58 61 67 68 69 71
b 20 6 7 10 15 16 18 19 21 25 28 29 30 31 32 35 37 45 46 48 53 58 61 67 68 69 71
b 21 6 10 15 16 18 19 21 25 28 29 30 31 32 35 37 39 45 46 48 53 58 61 67 69 71
b 22 6 15 16 18 19 21 25 28 29 30 31 32 35 37 39 45 46 48 53 54 58 61 67 71
b 23 6 16 19 21 25 28 29 30 31 32 35 37 39 45 46 48 53 54 58 60 61 67 71
b 24 6 19 21 25 28 29 30 31 32 35 37 39 45 46 48 53 54 60 61 67 70 71
b 25 6 21 25 28 29 30 31 32 35 37 39 44 45 46 53 54 60 61 67 70 71
b 26 6 21 25 28 30 31 32 37 39 44 45 46 53 54 56 60 61 67 70 71
b 27 6 21 25 28 30 32 37 39 44 45 46 54 56 60 61 66 67 70 71
b 28 6 21 25 28 30 32 39 44 45 46 54 56 60 61 66 67 70 71
b 29 6 21 25 28 30 32 39 44 45 46 50 54 56 60 66 67 70 71
b 30 4 6 21 25 28 30 32 39 44 45 50 54 56 60 66 67 70
1 30
2 3
3 16
4 5
5 6
6 7
7 18
7 8
8 9
9 10
10 11
11 12
12 13
13 14
14 15
15 16
17 18
18 19
19 20
20 21
21 22
22 23
23 24
24 25
25 26
26 27
27 28
28 29
29 30
